benchmarks_vrp/CMT4/tsp_classic/CMT4_9.vrp
NAME: CMT4_9
TYPE: CVRP
COMMENT: 1028.42 - Cluster Nr.9
DIMENSION: 14
CAPACITY: 200
EDGE_WEIGHT_TYPE: EUC_2D
NODE_COORD_TYPE: TWOD_COORDS
NODE_COORD_SECTION: 
7 58 48
1 56 39
4 60 12
14 63 23
10 57 29
3 55 45
6 64 42
9 58 27
12 65 20
13 61 33
5 62 42
8 65 35
11 35 35
2 53 43
DEPOT_SECTION: 
11
-1
DEMAND_SECTION: 
10 18
13 26
6 9
8 3
3 13
9 19
1 36
5 8
12 6
14 2
7 6
2 14
11 0
4 31
EOF
