benchmarks_vrp/CMT4/tsp_classic/CMT4_9.tour
NAME: CMT4_9 solution
TYPE: TOUR
TOUR_SECTION:
11 1 2 3 7 5 6 8 13 10 9 14 12 4 -1
-1
EOF